c turning on binary mode checking
c parsing input formula with 259840 variables and 1039929 clauses
c finished parsing, read 3190325 bytes from proof file
c detected empty clause; start verification via backward checking
c 3475 of 1039929 clauses in core                            
c 1083 of 123216 lemmas in core using 12780 resolution steps
c 0 RAT lemmas in core; 37 redundant literals in core lemmas
s VERIFIED
c verification time: 1.377 seconds
